data;

param n:=26;
param p:=3;
param r:=[1] 0 [2] 1 [3] 0 [4] 5 [5] 10 [6] 5 [7] 4 [8] 3 [9] 11 [10] 14 [11] 4 [12] 29 [13] 13 [14] 12 [15] 34 [16] 9 [17] 46 [18] 45 [19] 27 [20] 36 [21] 2 [22] 30 [23] 9 [24] 45 [25] 13 [26] 54 ;
param w:=[1] 22 [2] 99 [3] 61 [4] 34 [5] 99 [6] 92 [7] 97 [8] 62 [9] 45 [10] 90 [11] 96 [12] 85 [13] 67 [14] 51 [15] 4 [16] 34 [17] 98 [18] 88 [19] 8 [20] 89 [21] 19 [22] 76 [23] 7 [24] 32 [25] 35 [26] 67 ;

end;
